NAME 
ROWS
 N  OBJ
 L  R0      
 E  R1      
 E  R2      
 E  R3      
 E  R4      
 E  R5      
 E  R6      
 E  R7      
 E  R8      
 E  R9      
 E  R10     
 E  R11     
 E  R12     
 E  R13     
 E  R14     
 E  R15     
 E  R16     
 E  R17     
 E  R18     
 E  R19     
 E  R20     
COLUMNS
    MARKER    'MARKER'                 'INTORG'
    I0(12)    OBJ       102
    I0(12)    R0        -168
    I0(12)    R2        7
    I0(12)    R3        19
    I0(12)    R4        16
    I0(12)    R5        15
    I0(12)    R6        3
    I0(12)    R7        18
    I0(12)    R8        17
    I0(12)    R9        7
    I0(12)    R11       2
    I0(12)    R12       3
    I0(12)    R20       1
    I1(11)    OBJ       -70
    I1(11)    R0        128
    I1(11)    R1        15
    I1(11)    R3        1
    I1(11)    R4        5
    I1(11)    R6        8
    I1(11)    R7        4
    I1(11)    R9        -1
    I1(11)    R10       15
    I1(11)    R11       13
    I1(11)    R12       10
    I1(11)    R20       1
    I2(10)    OBJ       -165
    I2(10)    R0        42
    I2(10)    R3        13
    I2(10)    R4        3
    I2(10)    R6        17
    I2(10)    R7        5
    I2(10)    R8        11
    I2(10)    R9        14
    I2(10)    R10       8
    I2(10)    R11       -1
    I2(10)    R20       1
    I3(9)     OBJ       99
    I3(9)     R0        95
    I3(9)     R1        -1
    I3(9)     R2        2
    I3(9)     R3        17
    I3(9)     R6        10
    I3(9)     R7        14
    I3(9)     R11       18
    I3(9)     R12       13
    I3(9)     R20       1
    I4(11)    OBJ       -94
    I4(11)    R0        22
    I4(11)    R1        7
    I4(11)    R2        18
    I4(11)    R4        -1
    I4(11)    R5        11
    I4(11)    R6        11
    I4(11)    R7        19
    I4(11)    R8        9
    I4(11)    R11       3
    I4(11)    R12       5
    I4(11)    R20       1
    I5(13)    OBJ       -190
    I5(13)    R0        183
    I5(13)    R1        9
    I5(13)    R2        10
    I5(13)    R3        19
    I5(13)    R4        7
    I5(13)    R5        15
    I5(13)    R6        10
    I5(13)    R7        19
    I5(13)    R8        5
    I5(13)    R9        19
    I5(13)    R10       14
    I5(13)    R11       12
    I5(13)    R20       1
    I6(14)    OBJ       28
    I6(14)    R0        -183
    I6(14)    R1        5
    I6(14)    R2        3
    I6(14)    R3        17
    I6(14)    R4        19
    I6(14)    R5        4
    I6(14)    R6        10
    I6(14)    R7        19
    I6(14)    R8        19
    I6(14)    R9        13
    I6(14)    R10       7
    I6(14)    R11       3
    I6(14)    R12       8
    I6(14)    R20       1
    I7(13)    OBJ       196
    I7(13)    R0        -4
    I7(13)    R1        10
    I7(13)    R2        17
    I7(13)    R3        19
    I7(13)    R4        15
    I7(13)    R5        6
    I7(13)    R6        12
    I7(13)    R8        19
    I7(13)    R9        11
    I7(13)    R10       10
    I7(13)    R11       9
    I7(13)    R12       16
    I7(13)    R20       1
    I8(13)    OBJ       121
    I8(13)    R0        141
    I8(13)    R1        8
    I8(13)    R2        3
    I8(13)    R4        10
    I8(13)    R5        10
    I8(13)    R6        7
    I8(13)    R7        10
    I8(13)    R8        13
    I8(13)    R9        14
    I8(13)    R10       11
    I8(13)    R11       16
    I8(13)    R12       8
    I8(13)    R20       1
    I9(11)    OBJ       -104
    I9(11)    R0        192
    I9(11)    R1        16
    I9(11)    R2        19
    I9(11)    R3        14
    I9(11)    R5        5
    I9(11)    R7        2
    I9(11)    R8        1
    I9(11)    R9        4
    I9(11)    R11       17
    I9(11)    R12       9
    I9(11)    R20       1
    I10(11)   OBJ       194
    I10(11)   R0        -161
    I10(11)   R1        4
    I10(11)   R2        13
    I10(11)   R3        3
    I10(11)   R6        10
    I10(11)   R7        19
    I10(11)   R8        8
    I10(11)   R9        19
    I10(11)   R11       10
    I10(11)   R12       12
    I10(11)   R20       1
    I11(12)   OBJ       23
    I11(12)   R0        33
    I11(12)   R1        2
    I11(12)   R3        7
    I11(12)   R4        1
    I11(12)   R5        17
    I11(12)   R6        5
    I11(12)   R8        7
    I11(12)   R9        3
    I11(12)   R10       19
    I11(12)   R11       10
    I11(12)   R12       9
    I11(12)   R20       1
    MARKER    'MARKER'                 'INTEND'
    C12(14)   OBJ       -1
    C12(14)   R0        1
    C12(14)   R2        10
    C12(14)   R3        2
    C12(14)   R5        17
    C12(14)   R6        12
    C12(14)   R9        14
    C12(14)   R10       16
    C12(14)   R11       9
    C12(14)   R13       2
    C12(14)   R14       12
    C12(14)   R15       3
    C12(14)   R16       7
    C12(14)   R17       16
    C12(14)   R18       1
    C13(11)   R0        -10
    C13(11)   R2        8
    C13(11)   R5        3
    C13(11)   R7        10
    C13(11)   R8        8
    C13(11)   R11       1
    C13(11)   R14       8
    C13(11)   R15       7
    C13(11)   R16       1
    C13(11)   R17       6
    C13(11)   R19       14
    C14(16)   OBJ       -8
    C14(16)   R0        -10
    C14(16)   R1        11
    C14(16)   R2        8
    C14(16)   R3        19
    C14(16)   R4        16
    C14(16)   R5        19
    C14(16)   R6        8
    C14(16)   R7        18
    C14(16)   R9        18
    C14(16)   R11       18
    C14(16)   R12       3
    C14(16)   R14       1
    C14(16)   R16       3
    C14(16)   R17       19
    C14(16)   R18       5
    C14(16)   R19       17
    C15(15)   OBJ       8
    C15(15)   R0        6
    C15(15)   R1        19
    C15(15)   R2        1
    C15(15)   R5        1
    C15(15)   R7        2
    C15(15)   R8        6
    C15(15)   R9        -1
    C15(15)   R10       10
    C15(15)   R11       4
    C15(15)   R12       4
    C15(15)   R13       12
    C15(15)   R14       11
    C15(15)   R15       8
    C15(15)   R17       10
    C15(15)   R18       17
    C16(18)   R0        8
    C16(18)   R1        5
    C16(18)   R2        4
    C16(18)   R3        5
    C16(18)   R4        2
    C16(18)   R5        12
    C16(18)   R6        17
    C16(18)   R7        9
    C16(18)   R8        16
    C16(18)   R9        10
    C16(18)   R10       18
    C16(18)   R11       7
    C16(18)   R12       19
    C16(18)   R14       14
    C16(18)   R16       13
    C16(18)   R17       17
    C16(18)   R18       19
    C16(18)   R19       10
    C17(17)   OBJ       -9
    C17(17)   R0        -5
    C17(17)   R2        14
    C17(17)   R3        14
    C17(17)   R4        2
    C17(17)   R5        17
    C17(17)   R6        18
    C17(17)   R7        9
    C17(17)   R9        6
    C17(17)   R10       14
    C17(17)   R11       4
    C17(17)   R12       19
    C17(17)   R13       4
    C17(17)   R14       8
    C17(17)   R16       4
    C17(17)   R17       19
    C17(17)   R18       16
    C17(17)   R19       9
    C18(15)   OBJ       -2
    C18(15)   R0        9
    C18(15)   R1        18
    C18(15)   R2        11
    C18(15)   R3        1
    C18(15)   R4        18
    C18(15)   R5        9
    C18(15)   R6        5
    C18(15)   R7        18
    C18(15)   R8        15
    C18(15)   R9        9
    C18(15)   R12       11
    C18(15)   R15       9
    C18(15)   R16       9
    C18(15)   R18       4
    C18(15)   R19       2
    C19(14)   OBJ       -2
    C19(14)   R0        3
    C19(14)   R1        3
    C19(14)   R2        7
    C19(14)   R3        9
    C19(14)   R4        10
    C19(14)   R7        3
    C19(14)   R8        5
    C19(14)   R9        -1
    C19(14)   R10       -1
    C19(14)   R11       5
    C19(14)   R13       11
    C19(14)   R16       10
    C19(14)   R17       2
    C19(14)   R18       4
    C20(1)    R1        1
    C21(1)    R2        1
    C22(1)    R3        1
    C23(1)    R4        1
    C24(1)    R5        1
    C25(1)    R6        1
    C26(1)    R7        1
    C27(1)    R8        1
    C28(1)    R9        1
    C29(1)    R10       1
    C30(1)    R11       1
    C31(1)    R12       1
    C32(1)    R13       1
    C33(1)    R14       1
    C34(1)    R15       1
    C35(1)    R16       1
    C36(1)    R17       1
    C37(1)    R18       1
    C38(1)    R19       1
    C39(1)    R20       1
RHS
    RHS1      R0        4.2913888888888891e+02
    RHS1      R1        82
    RHS1      R2        60
    RHS1      R3        60
    RHS1      R4        78
    RHS1      R5        74
    RHS1      R6        55
    RHS1      R7        64
    RHS1      R8        57
    RHS1      R9        82
    RHS1      R10       50
    RHS1      R11       90
    RHS1      R12       72
    RHS1      R13       75
    RHS1      R14       87
    RHS1      R15       99
    RHS1      R16       78
    RHS1      R17       55
    RHS1      R18       81
    RHS1      R19       88
    RHS1      R20       4
BOUNDS
 UP BND1      I0(12)    2
 UP BND1      I1(11)    2
 UP BND1      I2(10)    2
 UP BND1      I3(9)     2
 UP BND1      I4(11)    2
 UP BND1      I5(13)    2
 UP BND1      I6(14)    2
 UP BND1      I7(13)    2
 UP BND1      I8(13)    2
 UP BND1      I9(11)    2
 UP BND1      I10(11)   2
 UP BND1      I11(12)   2
ENDATA
